computational_data/solutions/ER_n40_p035_s4.sol
Optimal - objective value 7.00000000
     12 r_12                        1                       1
     23 r_23                        1                       1
     25 r_25                        1                       1
     29 r_29                        1                       1
     42 b_2                         1                       1
     56 b_16                        1                       1
     64 b_24                        1                       1
